p edge 100 2500
e 1 2
e 1 3
e 1 4
e 1 5
e 1 6
e 1 7
e 1 8
e 1 9
e 1 10
e 1 11
e 1 12
e 1 13
e 1 14
e 1 15
e 1 16
e 1 17
e 1 18
e 1 19
e 1 20
e 1 21
e 1 22
e 1 23
e 1 24
e 1 25
e 1 26
e 1 27
e 1 28
e 1 29
e 1 30
e 1 31
e 1 32
e 1 33
e 1 34
e 1 35
e 1 36
e 1 37
e 1 38
e 1 39
e 1 40
e 1 41
e 1 42
e 1 43
e 1 44
e 1 45
e 1 46
e 1 47
e 1 48
e 1 49
e 1 50
e 1 51
e 1 52
e 1 53
e 1 54
e 1 55
e 1 56
e 1 57
e 1 58
e 1 59
e 1 60
e 1 61
e 1 62
e 1 63
e 1 64
e 1 65
e 1 66
e 1 67
e 1 68
e 1 69
e 1 70
e 1 71
e 1 72
e 1 73
e 1 74
e 1 75
e 1 76
e 1 77
e 1 78
e 1 79
e 1 80
e 1 81
e 1 82
e 1 83
e 1 84
e 1 85
e 1 86
e 1 87
e 1 88
e 1 89
e 1 90
e 1 91
e 1 92
e 2 52
e 2 53
e 2 54
e 2 55
e 2 56
e 2 57
e 2 58
e 2 59
e 2 60
e 2 61
e 2 62
e 2 63
e 2 93
e 2 64
e 2 65
e 2 66
e 2 67
e 2 94
e 2 68
e 2 69
e 2 72
e 2 73
e 2 74
e 2 76
e 2 78
e 2 80
e 2 81
e 2 82
e 2 83
e 2 95
e 2 87
e 2 88
e 2 90
e 2 96
e 3 52
e 3 53
e 3 54
e 3 55
e 3 57
e 3 58
e 3 59
e 3 60
e 3 61
e 3 62
e 3 63
e 3 93
e 3 64
e 3 65
e 3 94
e 3 68
e 3 70
e 3 72
e 3 74
e 3 75
e 3 77
e 3 97
e 3 87
e 3 88
e 3 98
e 4 52
e 4 53
e 4 54
e 4 55
e 4 56
e 4 57
e 4 58
e 4 60
e 4 61
e 4 62
e 4 63
e 4 93
e 4 64
e 4 65
e 4 66
e 4 67
e 4 94
e 4 68
e 4 70
e 4 71
e 4 72
e 4 73
e 4 74
e 4 76
e 4 78
e 4 80
e 4 99
e 4 82
e 4 91
e 4 96
e 5 52
e 5 53
e 5 54
e 5 55
e 5 56
e 5 57
e 5 59
e 5 60
e 5 61
e 5 63
e 5 93
e 5 64
e 5 65
e 5 66
e 5 94
e 5 68
e 5 69
e 5 70
e 5 71
e 5 72
e 5 74
e 5 77
e 5 78
e 5 80
e 5 99
e 5 100
e 5 97
e 5 84
e 5 95
e 5 88
e 6 52
e 6 53
e 6 54
e 6 55
e 6 56
e 6 57
e 6 58
e 6 59
e 6 60
e 6 61
e 6 62
e 6 63
e 6 93
e 6 64
e 6 67
e 6 94
e 6 68
e 6 69
e 6 70
e 6 72
e 6 73
e 6 74
e 6 77
e 6 79
e 6 80
e 6 100
e 6 81
e 6 86
e 6 95
e 6 88
e 6 89
e 6 96
e 7 52
e 7 53
e 7 55
e 7 56
e 7 57
e 7 58
e 7 59
e 7 60
e 7 61
e 7 62
e 7 63
e 7 93
e 7 64
e 7 65
e 7 66
e 7 67
e 7 94
e 7 69
e 7 70
e 7 71
e 7 72
e 7 76
e 7 77
e 7 80
e 7 99
e 7 100
e 7 83
e 7 97
e 7 84
e 7 88
e 7 89
e 7 90
e 8 52
e 8 53
e 8 54
e 8 56
e 8 57
e 8 58
e 8 61
e 8 62
e 8 63
e 8 93
e 8 64
e 8 65
e 8 66
e 8 94
e 8 69
e 8 70
e 8 71
e 8 74
e 8 77
e 8 82
e 8 84
e 8 87
e 8 90
e 9 52
e 9 53
e 9 54
e 9 55
e 9 56
e 9 57
e 9 58
e 9 59
e 9 60
e 9 61
e 9 62
e 9 63
e 9 64
e 9 65
e 9 66
e 9 69
e 9 70
e 9 71
e 9 73
e 9 74
e 9 76
e 9 77
e 9 79
e 9 100
e 9 82
e 9 85
e 9 95
e 9 92
e 10 52
e 10 53
e 10 54
e 10 55
e 10 56
e 10 57
e 10 58
e 10 59
e 10 60
e 10 61
e 10 93
e 10 64
e 10 65
e 10 66
e 10 67
e 10 94
e 10 70
e 10 73
e 10 74
e 10 75
e 10 76
e 10 77
e 10 78
e 10 80
e 10 100
e 10 83
e 10 97
e 10 95
e 10 87
e 10 91
e 10 98
e 10 96
e 11 52
e 11 53
e 11 54
e 11 55
e 11 56
e 11 57
e 11 59
e 11 60
e 11 61
e 11 62
e 11 64
e 11 66
e 11 67
e 11 94
e 11 68
e 11 69
e 11 71
e 11 72
e 11 73
e 11 74
e 11 76
e 11 77
e 11 78
e 11 79
e 11 80
e 11 99
e 11 100
e 11 81
e 11 83
e 11 97
e 11 84
e 11 86
e 11 87
e 11 96
e 12 52
e 12 53
e 12 54
e 12 56
e 12 57
e 12 58
e 12 59
e 12 60
e 12 61
e 12 62
e 12 65
e 12 67
e 12 94
e 12 71
e 12 72
e 12 73
e 12 75
e 12 76
e 12 77
e 12 78
e 12 79
e 12 99
e 12 100
e 12 84
e 12 85
e 12 87
e 12 89
e 12 91
e 12 92
e 13 52
e 13 53
e 13 54
e 13 55
e 13 56
e 13 57
e 13 58
e 13 59
e 13 60
e 13 62
e 13 63
e 13 93
e 13 64
e 13 65
e 13 66
e 13 67
e 13 94
e 13 69
e 13 71
e 13 72
e 13 73
e 13 74
e 13 75
e 13 79
e 13 80
e 13 99
e 13 85
e 13 86
e 13 95
e 13 87
e 13 88
e 13 90
e 13 92
e 14 52
e 14 53
e 14 54
e 14 55
e 14 56
e 14 57
e 14 58
e 14 59
e 14 60
e 14 61
e 14 93
e 14 64
e 14 65
e 14 94
e 14 68
e 14 69
e 14 70
e 14 72
e 14 73
e 14 74
e 14 75
e 14 76
e 14 77
e 14 80
e 14 100
e 14 81
e 14 82
e 14 83
e 14 85
e 14 95
e 14 91
e 14 96
e 15 52
e 15 53
e 15 54
e 15 55
e 15 57
e 15 58
e 15 60
e 15 61
e 15 63
e 15 93
e 15 65
e 15 66
e 15 67
e 15 94
e 15 68
e 15 70
e 15 71
e 15 75
e 15 80
e 15 82
e 15 83
e 15 85
e 15 86
e 15 87
e 15 92
e 15 98
e 16 52
e 16 53
e 16 54
e 16 55
e 16 56
e 16 57
e 16 58
e 16 59
e 16 60
e 16 61
e 16 62
e 16 63
e 16 64
e 16 65
e 16 67
e 16 94
e 16 68
e 16 69
e 16 71
e 16 75
e 16 76
e 16 77
e 16 79
e 16 99
e 16 81
e 16 82
e 16 83
e 16 97
e 16 86
e 16 95
e 16 90
e 16 92
e 16 98
e 16 96
e 17 52
e 17 53
e 17 54
e 17 55
e 17 56
e 17 57
e 17 58
e 17 59
e 17 60
e 17 61
e 17 62
e 17 63
e 17 93
e 17 65
e 17 67
e 17 94
e 17 68
e 17 70
e 17 71
e 17 73
e 17 74
e 17 77
e 17 80
e 17 99
e 17 100
e 17 82
e 17 83
e 17 97
e 17 85
e 17 86
e 17 95
e 17 90
e 17 96
e 18 52
e 18 53
e 18 54
e 18 55
e 18 56
e 18 57
e 18 58
e 18 60
e 18 62
e 18 63
e 18 93
e 18 64
e 18 65
e 18 67
e 18 94
e 18 68
e 18 69
e 18 70
e 18 72
e 18 74
e 18 76
e 18 78
e 18 79
e 18 80
e 18 81
e 18 82
e 18 83
e 18 84
e 18 85
e 18 86
e 18 89
e 18 96
e 19 52
e 19 53
e 19 54
e 19 55
e 19 56
e 19 57
e 19 58
e 19 59
e 19 60
e 19 61
e 19 62
e 19 63
e 19 93
e 19 64
e 19 65
e 19 67
e 19 68
e 19 69
e 19 73
e 19 74
e 19 75
e 19 77
e 19 97
e 19 86
e 19 89
e 19 90
e 19 92
e 19 96
e 20 53
e 20 56
e 20 58
e 20 59
e 20 60
e 20 61
e 20 62
e 20 93
e 20 64
e 20 65
e 20 66
e 20 67
e 20 94
e 20 69
e 20 71
e 20 73
e 20 75
e 20 76
e 20 77
e 20 100
e 20 81
e 20 83
e 20 92
e 20 96
e 21 52
e 21 53
e 21 54
e 21 55
e 21 56
e 21 57
e 21 58
e 21 59
e 21 60
e 21 62
e 21 63
e 21 64
e 21 65
e 21 66
e 21 94
e 21 68
e 21 69
e 21 71
e 21 73
e 21 75
e 21 77
e 21 78
e 21 79
e 21 81
e 21 83
e 21 97
e 21 84
e 21 85
e 21 86
e 21 87
e 21 88
e 21 89
e 21 91
e 21 92
e 22 52
e 22 53
e 22 54
e 22 55
e 22 56
e 22 58
e 22 59
e 22 60
e 22 61
e 22 62
e 22 63
e 22 93
e 22 64
e 22 65
e 22 66
e 22 70
e 22 72
e 22 73
e 22 74
e 22 78
e 22 79
e 22 80
e 22 81
e 22 82
e 22 84
e 22 86
e 22 88
e 22 89
e 22 90
e 22 91
e 23 52
e 23 53
e 23 54
e 23 55
e 23 56
e 23 58
e 23 59
e 23 62
e 23 93
e 23 65
e 23 66
e 23 67
e 23 94
e 23 68
e 23 71
e 23 72
e 23 73
e 23 74
e 23 78
e 23 79
e 23 99
e 23 100
e 23 81
e 23 97
e 23 84
e 23 95
e 23 96
e 24 52
e 24 53
e 24 54
e 24 55
e 24 56
e 24 57
e 24 58
e 24 59
e 24 62
e 24 63
e 24 65
e 24 66
e 24 67
e 24 94
e 24 68
e 24 69
e 24 72
e 24 74
e 24 76
e 24 77
e 24 78
e 24 79
e 24 80
e 24 99
e 24 81
e 24 82
e 24 97
e 24 85
e 24 86
e 24 88
e 24 90
e 24 98
e 24 96
e 25 52
e 25 53
e 25 54
e 25 55
e 25 56
e 25 57
e 25 58
e 25 59
e 25 60
e 25 61
e 25 62
e 25 64
e 25 65
e 25 66
e 25 94
e 25 68
e 25 70
e 25 71
e 25 73
e 25 75
e 25 77
e 25 78
e 25 79
e 25 99
e 25 81
e 25 83
e 25 85
e 25 87
e 25 88
e 25 91
e 25 92
e 25 98
e 26 52
e 26 53
e 26 54
e 26 55
e 26 56
e 26 57
e 26 58
e 26 59
e 26 60
e 26 63
e 26 93
e 26 66
e 26 71
e 26 73
e 26 99
e 26 97
e 26 85
e 26 90
e 26 98
e 27 52
e 27 53
e 27 54
e 27 55
e 27 56
e 27 57
e 27 58
e 27 59
e 27 60
e 27 61
e 27 63
e 27 64
e 27 65
e 27 66
e 27 67
e 27 68
e 27 69
e 27 72
e 27 73
e 27 74
e 27 76
e 27 79
e 27 99
e 27 100
e 27 81
e 27 83
e 27 84
e 27 85
e 27 86
e 27 88
e 27 89
e 27 98
e 28 52
e 28 53
e 28 54
e 28 55
e 28 56
e 28 57
e 28 58
e 28 59
e 28 60
e 28 61
e 28 62
e 28 63
e 28 64
e 28 65
e 28 66
e 28 94
e 28 68
e 28 71
e 28 74
e 28 76
e 28 97
e 28 86
e 28 88
e 28 89
e 28 91
e 29 52
e 29 53
e 29 54
e 29 55
e 29 56
e 29 58
e 29 60
e 29 61
e 29 62
e 29 64
e 29 66
e 29 67
e 29 94
e 29 68
e 29 69
e 29 70
e 29 72
e 29 73
e 29 74
e 29 75
e 29 76
e 29 77
e 29 79
e 29 81
e 29 82
e 29 97
e 29 89
e 29 90
e 29 92
e 29 98
e 29 96
e 30 52
e 30 53
e 30 54
e 30 55
e 30 56
e 30 57
e 30 59
e 30 60
e 30 61
e 30 62
e 30 63
e 30 93
e 30 64
e 30 66
e 30 67
e 30 94
e 30 69
e 30 71
e 30 73
e 30 75
e 30 76
e 30 77
e 30 78
e 30 80
e 30 81
e 30 83
e 30 97
e 30 88
e 30 89
e 30 90
e 30 96
e 31 52
e 31 53
e 31 54
e 31 55
e 31 56
e 31 57
e 31 58
e 31 59
e 31 60
e 31 61
e 31 62
e 31 63
e 31 93
e 31 64
e 31 65
e 31 67
e 31 70
e 31 73
e 31 76
e 31 80
e 31 99
e 31 84
e 31 85
e 31 86
e 31 95
e 31 87
e 31 88
e 31 89
e 31 98
e 32 52
e 32 53
e 32 54
e 32 55
e 32 56
e 32 57
e 32 58
e 32 59
e 32 60
e 32 61
e 32 63
e 32 93
e 32 64
e 32 66
e 32 67
e 32 94
e 32 68
e 32 69
e 32 70
e 32 75
e 32 76
e 32 77
e 32 78
e 32 79
e 32 80
e 32 99
e 32 82
e 32 84
e 32 95
e 32 87
e 32 89
e 32 91
e 33 52
e 33 53
e 33 54
e 33 55
e 33 56
e 33 57
e 33 58
e 33 59
e 33 60
e 33 61
e 33 63
e 33 93
e 33 65
e 33 66
e 33 67
e 33 94
e 33 70
e 33 71
e 33 72
e 33 74
e 33 76
e 33 79
e 33 100
e 33 81
e 33 82
e 33 84
e 33 86
e 33 87
e 33 88
e 33 98
e 33 96
e 34 52
e 34 53
e 34 54
e 34 55
e 34 57
e 34 58
e 34 59
e 34 60
e 34 61
e 34 63
e 34 93
e 34 65
e 34 68
e 34 70
e 34 71
e 34 73
e 34 74
e 34 77
e 34 99
e 34 100
e 34 83
e 34 84
e 34 85
e 34 95
e 34 91
e 35 52
e 35 53
e 35 54
e 35 55
e 35 56
e 35 57
e 35 58
e 35 59
e 35 62
e 35 63
e 35 93
e 35 65
e 35 66
e 35 67
e 35 69
e 35 72
e 35 73
e 35 74
e 35 75
e 35 76
e 35 77
e 35 79
e 35 82
e 35 83
e 35 95
e 35 88
e 35 89
e 35 90
e 35 92
e 35 96
e 36 52
e 36 53
e 36 54
e 36 55
e 36 56
e 36 57
e 36 59
e 36 60
e 36 61
e 36 62
e 36 63
e 36 93
e 36 64
e 36 66
e 36 67
e 36 94
e 36 68
e 36 69
e 36 70
e 36 71
e 36 72
e 36 74
e 36 75
e 36 77
e 36 78
e 36 79
e 36 80
e 36 99
e 36 100
e 36 81
e 36 82
e 36 97
e 36 85
e 36 86
e 36 89
e 36 90
e 36 91
e 36 98
e 37 52
e 37 53
e 37 54
e 37 56
e 37 57
e 37 59
e 37 60
e 37 61
e 37 63
e 37 93
e 37 64
e 37 65
e 37 70
e 37 72
e 37 74
e 37 77
e 37 78
e 37 79
e 37 99
e 37 86
e 37 95
e 37 88
e 37 91
e 37 92
e 38 52
e 38 53
e 38 55
e 38 56
e 38 57
e 38 58
e 38 59
e 38 61
e 38 62
e 38 63
e 38 93
e 38 65
e 38 67
e 38 94
e 38 70
e 38 71
e 38 72
e 38 74
e 38 75
e 38 76
e 38 79
e 38 80
e 38 81
e 38 97
e 38 84
e 38 85
e 38 86
e 38 95
e 38 88
e 38 89
e 38 92
e 38 98
e 38 96
e 39 52
e 39 53
e 39 54
e 39 55
e 39 56
e 39 57
e 39 58
e 39 59
e 39 60
e 39 61
e 39 62
e 39 63
e 39 93
e 39 64
e 39 66
e 39 67
e 39 94
e 39 68
e 39 69
e 39 70
e 39 71
e 39 72
e 39 75
e 39 76
e 39 78
e 39 79
e 39 80
e 39 99
e 39 81
e 39 82
e 39 83
e 39 84
e 39 85
e 39 86
e 39 88
e 39 90
e 39 91
e 39 92
e 39 98
e 39 96
e 40 52
e 40 53
e 40 54
e 40 55
e 40 57
e 40 58
e 40 59
e 40 60
e 40 61
e 40 62
e 40 63
e 40 93
e 40 65
e 40 94
e 40 68
e 40 69
e 40 71
e 40 72
e 40 73
e 40 74
e 40 76
e 40 77
e 40 78
e 40 79
e 40 81
e 40 83
e 40 84
e 40 89
e 40 91
e 41 52
e 41 53
e 41 54
e 41 55
e 41 56
e 41 57
e 41 58
e 41 59
e 41 61
e 41 62
e 41 63
e 41 93
e 41 66
e 41 67
e 41 68
e 41 73
e 41 75
e 41 76
e 41 81
e 41 97
e 41 85
e 41 87
e 41 89
e 41 91
e 41 92
e 42 52
e 42 53
e 42 54
e 42 55
e 42 56
e 42 57
e 42 58
e 42 60
e 42 61
e 42 62
e 42 63
e 42 64
e 42 66
e 42 67
e 42 68
e 42 69
e 42 70
e 42 76
e 42 78
e 42 82
e 42 83
e 42 97
e 42 84
e 42 87
e 43 52
e 43 53
e 43 54
e 43 55
e 43 56
e 43 57
e 43 59
e 43 61
e 43 93
e 43 64
e 43 65
e 43 66
e 43 67
e 43 70
e 43 75
e 43 78
e 43 79
e 43 80
e 43 99
e 43 100
e 43 83
e 43 97
e 43 86
e 43 88
e 43 91
e 43 96
e 44 52
e 44 53
e 44 54
e 44 55
e 44 56
e 44 57
e 44 58
e 44 59
e 44 60
e 44 62
e 44 63
e 44 93
e 44 64
e 44 65
e 44 94
e 44 68
e 44 70
e 44 71
e 44 72
e 44 73
e 44 75
e 44 80
e 44 84
e 44 85
e 44 86
e 44 87
e 44 90
e 44 91
e 44 98
e 44 96
e 45 52
e 45 54
e 45 55
e 45 56
e 45 57
e 45 58
e 45 59
e 45 60
e 45 61
e 45 62
e 45 63
e 45 93
e 45 64
e 45 65
e 45 67
e 45 94
e 45 68
e 45 69
e 45 70
e 45 72
e 45 73
e 45 75
e 45 76
e 45 77
e 45 79
e 45 80
e 45 99
e 45 100
e 45 81
e 45 83
e 45 95
e 45 87
e 45 88
e 45 89
e 45 90
e 45 91
e 46 52
e 46 53
e 46 54
e 46 55
e 46 56
e 46 57
e 46 58
e 46 61
e 46 62
e 46 63
e 46 93
e 46 64
e 46 65
e 46 66
e 46 67
e 46 68
e 46 69
e 46 70
e 46 71
e 46 75
e 46 76
e 46 78
e 46 79
e 46 80
e 46 100
e 46 81
e 46 82
e 46 95
e 46 89
e 46 91
e 47 52
e 47 53
e 47 54
e 47 55
e 47 56
e 47 57
e 47 58
e 47 59
e 47 60
e 47 61
e 47 62
e 47 93
e 47 64
e 47 66
e 47 67
e 47 94
e 47 69
e 47 70
e 47 75
e 47 77
e 47 78
e 47 79
e 47 99
e 47 81
e 47 97
e 47 87
e 47 88
e 47 98
e 48 52
e 48 54
e 48 55
e 48 56
e 48 57
e 48 58
e 48 59
e 48 60
e 48 61
e 48 62
e 48 63
e 48 93
e 48 64
e 48 65
e 48 66
e 48 94
e 48 69
e 48 72
e 48 73
e 48 76
e 48 78
e 48 80
e 48 99
e 48 100
e 48 82
e 48 83
e 48 84
e 48 85
e 48 89
e 49 52
e 49 53
e 49 54
e 49 55
e 49 56
e 49 59
e 49 60
e 49 62
e 49 93
e 49 64
e 49 65
e 49 67
e 49 68
e 49 69
e 49 71
e 49 72
e 49 73
e 49 74
e 49 100
e 49 81
e 49 97
e 49 85
e 49 95
e 49 88
e 49 90
e 49 98
e 49 96
e 50 52
e 50 53
e 50 54
e 50 55
e 50 56
e 50 57
e 50 58
e 50 62
e 50 66
e 50 68
e 50 69
e 50 72
e 50 75
e 50 77
e 50 78
e 50 100
e 50 81
e 50 85
e 50 86
e 50 88
e 50 90
e 50 92
e 51 52
e 51 53
e 51 54
e 51 55
e 51 58
e 51 59
e 51 60
e 51 61
e 51 62
e 51 63
e 51 93
e 51 66
e 51 70
e 51 71
e 51 75
e 51 78
e 51 100
e 51 82
e 51 86
e 51 91
e 52 53
e 52 54
e 52 55
e 52 56
e 52 57
e 52 58
e 52 59
e 52 60
e 52 61
e 52 62
e 52 63
e 52 93
e 52 64
e 52 65
e 52 66
e 52 67
e 52 94
e 52 68
e 52 69
e 52 70
e 52 71
e 52 72
e 52 73
e 52 74
e 52 75
e 52 76
e 52 77
e 52 78
e 52 79
e 52 99
e 52 100
e 52 81
e 52 82
e 52 83
e 52 97
e 52 84
e 52 85
e 52 86
e 52 95
e 52 87
e 52 88
e 52 89
e 52 92
e 52 98
e 52 96
e 53 54
e 53 55
e 53 56
e 53 57
e 53 58
e 53 59
e 53 60
e 53 61
e 53 62
e 53 63
e 53 93
e 53 64
e 53 65
e 53 66
e 53 67
e 53 94
e 53 68
e 53 69
e 53 70
e 53 71
e 53 72
e 53 73
e 53 74
e 53 75
e 53 76
e 53 77
e 53 78
e 53 79
e 53 80
e 53 99
e 53 100
e 53 82
e 53 83
e 53 97
e 53 84
e 53 85
e 53 86
e 53 95
e 53 87
e 53 88
e 53 90
e 53 91
e 53 92
e 53 98
e 53 96
e 54 55
e 54 56
e 54 57
e 54 58
e 54 59
e 54 60
e 54 61
e 54 62
e 54 63
e 54 93
e 54 64
e 54 65
e 54 66
e 54 67
e 54 94
e 54 68
e 54 69
e 54 70
e 54 71
e 54 72
e 54 73
e 54 74
e 54 75
e 54 76
e 54 77
e 54 79
e 54 80
e 54 99
e 54 100
e 54 81
e 54 82
e 54 97
e 54 85
e 54 95
e 54 87
e 54 88
e 54 89
e 54 90
e 54 91
e 54 92
e 54 98
e 54 96
e 55 56
e 55 57
e 55 58
e 55 59
e 55 60
e 55 61
e 55 62
e 55 63
e 55 93
e 55 64
e 55 65
e 55 66
e 55 67
e 55 94
e 55 68
e 55 69
e 55 70
e 55 71
e 55 72
e 55 73
e 55 74
e 55 75
e 55 76
e 55 77
e 55 78
e 55 79
e 55 80
e 55 99
e 55 100
e 55 81
e 55 82
e 55 83
e 55 97
e 55 84
e 55 95
e 55 89
e 55 90
e 55 91
e 55 98
e 56 57
e 56 58
e 56 59
e 56 60
e 56 61
e 56 62
e 56 63
e 56 93
e 56 64
e 56 65
e 56 66
e 56 67
e 56 94
e 56 68
e 56 69
e 56 70
e 56 71
e 56 72
e 56 73
e 56 74
e 56 75
e 56 76
e 56 77
e 56 78
e 56 79
e 56 80
e 56 99
e 56 100
e 56 81
e 56 83
e 56 97
e 56 84
e 56 86
e 56 95
e 56 87
e 56 88
e 56 89
e 56 90
e 56 91
e 56 92
e 56 98
e 56 96
e 57 58
e 57 59
e 57 60
e 57 61
e 57 62
e 57 63
e 57 93
e 57 64
e 57 66
e 57 67
e 57 68
e 57 69
e 57 70
e 57 71
e 57 72
e 57 73
e 57 74
e 57 75
e 57 76
e 57 78
e 57 79
e 57 80
e 57 99
e 57 100
e 57 81
e 57 82
e 57 97
e 57 84
e 57 85
e 57 86
e 57 95
e 57 87
e 57 88
e 57 89
e 57 91
e 57 92
e 57 98
e 57 96
e 58 59
e 58 60
e 58 61
e 58 62
e 58 63
e 58 93
e 58 64
e 58 65
e 58 66
e 58 67
e 58 94
e 58 68
e 58 69
e 58 70
e 58 71
e 58 72
e 58 73
e 58 74
e 58 75
e 58 76
e 58 77
e 58 78
e 58 79
e 58 80
e 58 100
e 58 81
e 58 82
e 58 83
e 58 97
e 58 84
e 58 85
e 58 86
e 58 95
e 58 87
e 58 88
e 58 90
e 58 92
e 58 98
e 59 60
e 59 61
e 59 62
e 59 63
e 59 93
e 59 64
e 59 65
e 59 66
e 59 67
e 59 94
e 59 68
e 59 69
e 59 70
e 59 71
e 59 72
e 59 73
e 59 74
e 59 75
e 59 76
e 59 77
e 59 78
e 59 79
e 59 80
e 59 99
e 59 100
e 59 81
e 59 82
e 59 83
e 59 97
e 59 84
e 59 85
e 59 86
e 59 87
e 59 91
e 60 61
e 60 62
e 60 63
e 60 93
e 60 64
e 60 65
e 60 66
e 60 67
e 60 94
e 60 68
e 60 69
e 60 70
e 60 71
e 60 72
e 60 73
e 60 74
e 60 75
e 60 78
e 60 79
e 60 80
e 60 99
e 60 81
e 60 82
e 60 83
e 60 97
e 60 84
e 60 85
e 60 95
e 60 88
e 60 89
e 60 91
e 60 92
e 60 98
e 61 62
e 61 63
e 61 93
e 61 64
e 61 66
e 61 67
e 61 94
e 61 68
e 61 69
e 61 70
e 61 71
e 61 72
e 61 73
e 61 74
e 61 76
e 61 77
e 61 78
e 61 80
e 61 99
e 61 83
e 61 97
e 61 84
e 61 85
e 61 95
e 61 87
e 61 88
e 61 89
e 61 90
e 61 91
e 61 92
e 61 96
e 62 63
e 62 93
e 62 64
e 62 65
e 62 66
e 62 67
e 62 94
e 62 68
e 62 69
e 62 71
e 62 72
e 62 74
e 62 75
e 62 76
e 62 77
e 62 78
e 62 79
e 62 99
e 62 81
e 62 82
e 62 83
e 62 97
e 62 85
e 62 95
e 62 87
e 62 88
e 62 90
e 62 91
e 62 92
e 63 93
e 63 64
e 63 65
e 63 66
e 63 67
e 63 94
e 63 68
e 63 69
e 63 70
e 63 71
e 63 72
e 63 73
e 63 74
e 63 75
e 63 76
e 63 77
e 63 78
e 63 79
e 63 80
e 63 99
e 63 100
e 63 82
e 63 83
e 63 85
e 63 86
e 63 95
e 63 87
e 63 88
e 63 89
e 63 90
e 63 92
e 63 98
e 63 96
e 93 64
e 93 65
e 93 66
e 93 67
e 93 94
e 93 68
e 93 69
e 93 70
e 93 71
e 93 72
e 93 73
e 93 74
e 93 75
e 93 76
e 93 77
e 93 78
e 93 79
e 93 80
e 93 99
e 93 100
e 93 81
e 93 82
e 93 83
e 93 97
e 93 84
e 93 86
e 93 95
e 93 87
e 93 89
e 93 90
e 93 91
e 93 92
e 93 98
e 93 96
e 64 65
e 64 66
e 64 67
e 64 94
e 64 68
e 64 69
e 64 70
e 64 71
e 64 72
e 64 74
e 64 75
e 64 76
e 64 77
e 64 78
e 64 79
e 64 80
e 64 100
e 64 81
e 64 82
e 64 83
e 64 97
e 64 84
e 64 85
e 64 86
e 64 95
e 64 87
e 64 88
e 64 90
e 64 92
e 64 98
e 64 96
e 65 66
e 65 67
e 65 94
e 65 68
e 65 69
e 65 70
e 65 71
e 65 72
e 65 73
e 65 74
e 65 75
e 65 76
e 65 77
e 65 79
e 65 99
e 65 100
e 65 81
e 65 82
e 65 97
e 65 84
e 65 85
e 65 86
e 65 95
e 65 88
e 65 89
e 65 90
e 65 91
e 66 67
e 66 94
e 66 68
e 66 69
e 66 70
e 66 71
e 66 72
e 66 73
e 66 74
e 66 75
e 66 76
e 66 78
e 66 80
e 66 99
e 66 100
e 66 82
e 66 83
e 66 97
e 66 84
e 66 85
e 66 86
e 66 95
e 66 87
e 66 88
e 66 89
e 66 91
e 66 92
e 66 98
e 66 96
e 67 94
e 67 68
e 67 69
e 67 70
e 67 71
e 67 72
e 67 73
e 67 74
e 67 75
e 67 76
e 67 77
e 67 79
e 67 80
e 67 99
e 67 100
e 67 81
e 67 83
e 67 97
e 67 84
e 67 86
e 67 95
e 67 87
e 67 88
e 67 91
e 67 92
e 67 98
e 67 96
e 94 68
e 94 69
e 94 70
e 94 71
e 94 72
e 94 73
e 94 75
e 94 77
e 94 78
e 94 79
e 94 80
e 94 99
e 94 100
e 94 82
e 94 83
e 94 84
e 94 85
e 94 95
e 94 87
e 94 89
e 94 90
e 94 92
e 94 98
e 94 96
e 68 69
e 68 70
e 68 71
e 68 73
e 68 74
e 68 75
e 68 76
e 68 77
e 68 78
e 68 80
e 68 99
e 68 100
e 68 81
e 68 82
e 68 84
e 68 85
e 68 86
e 68 95
e 68 87
e 68 89
e 68 90
e 68 92
e 68 96
e 69 70
e 69 71
e 69 72
e 69 73
e 69 75
e 69 76
e 69 78
e 69 80
e 69 99
e 69 100
e 69 81
e 69 82
e 69 97
e 69 86
e 69 87
e 69 88
e 69 89
e 69 91
e 69 92
e 69 96
e 70 71
e 70 72
e 70 74
e 70 78
e 70 80
e 70 99
e 70 100
e 70 81
e 70 82
e 70 83
e 70 97
e 70 84
e 70 85
e 70 86
e 70 88
e 70 89
e 70 91
e 70 92
e 70 98
e 71 72
e 71 73
e 71 75
e 71 76
e 71 77
e 71 78
e 71 79
e 71 80
e 71 82
e 71 83
e 71 84
e 71 85
e 71 86
e 71 95
e 71 87
e 71 89
e 71 90
e 71 92
e 71 96
e 72 73
e 72 74
e 72 75
e 72 76
e 72 77
e 72 79
e 72 80
e 72 100
e 72 81
e 72 82
e 72 83
e 72 84
e 72 86
e 72 95
e 72 89
e 72 90
e 72 96
e 73 74
e 73 75
e 73 78
e 73 79
e 73 99
e 73 100
e 73 82
e 73 83
e 73 97
e 73 84
e 73 85
e 73 86
e 73 95
e 73 87
e 73 89
e 73 91
e 73 92
e 73 98
e 74 75
e 74 77
e 74 78
e 74 79
e 74 80
e 74 99
e 74 100
e 74 82
e 74 83
e 74 85
e 74 86
e 74 95
e 74 87
e 74 88
e 74 90
e 74 91
e 74 92
e 74 96
e 75 76
e 75 77
e 75 78
e 75 79
e 75 80
e 75 99
e 75 100
e 75 81
e 75 82
e 75 83
e 75 97
e 75 84
e 75 85
e 75 86
e 75 95
e 75 87
e 75 89
e 75 90
e 75 91
e 75 92
e 75 98
e 76 77
e 76 78
e 76 99
e 76 100
e 76 81
e 76 82
e 76 83
e 76 84
e 76 85
e 76 86
e 76 95
e 76 90
e 76 92
e 76 96
e 77 78
e 77 79
e 77 80
e 77 99
e 77 100
e 77 81
e 77 83
e 77 97
e 77 84
e 77 85
e 77 87
e 77 89
e 77 90
e 77 91
e 77 92
e 77 96
e 78 79
e 78 99
e 78 100
e 78 81
e 78 82
e 78 83
e 78 84
e 78 86
e 78 95
e 78 87
e 78 88
e 78 89
e 78 91
e 78 92
e 78 98
e 79 80
e 79 99
e 79 100
e 79 81
e 79 82
e 79 97
e 79 85
e 79 95
e 79 87
e 79 88
e 79 89
e 79 90
e 79 91
e 79 98
e 79 96
e 80 99
e 80 100
e 80 82
e 80 97
e 80 85
e 80 86
e 80 95
e 80 90
e 80 98
e 80 96
e 99 100
e 99 83
e 99 97
e 99 84
e 99 86
e 99 95
e 99 90
e 99 92
e 99 98
e 100 81
e 100 82
e 100 83
e 100 97
e 100 84
e 100 86
e 100 87
e 100 89
e 100 90
e 100 91
e 81 97
e 81 84
e 81 85
e 81 95
e 81 87
e 81 88
e 81 90
e 81 91
e 81 98
e 81 96
e 82 83
e 82 97
e 82 86
e 82 95
e 82 87
e 82 88
e 82 89
e 82 90
e 82 91
e 82 92
e 82 98
e 82 96
e 83 97
e 83 84
e 83 95
e 83 87
e 83 88
e 83 89
e 83 92
e 83 98
e 97 84
e 97 85
e 97 87
e 97 89
e 97 91
e 97 98
e 97 96
e 84 85
e 84 92
e 85 90
e 85 91
e 85 92
e 85 98
e 85 96
e 86 87
e 86 88
e 86 89
e 86 90
e 86 91
e 86 98
e 86 96
e 95 87
e 95 88
e 95 90
e 95 98
e 87 88
e 87 89
e 87 90
e 87 91
e 87 92
e 87 98
e 88 90
e 88 92
e 88 98
e 88 96
e 89 92
e 89 98
e 90 91
e 90 96
e 91 98
e 92 98
